NAME : cgl_51.12498.tour
COMMENT : Length = 12498
COMMENT : Found by LKH-3 [Keld Helsgaun] Fri Nov  8 17:38:20 2024
TYPE : TOUR
DIMENSION : 52
TOUR_SECTION
12
4
3
5
8
6
7
9
1
2
13
14
15
16
17
18
19
20
21
22
24
23
27
26
25
30
29
28
32
31
33
34
35
36
39
38
37
40
43
41
42
44
45
46
47
48
49
50
51
52
10
11
-1
EOF
